(set-option :produce-models true)
(set-logic QF_LRA)
(set-info :notes | Strip-packing problem.|)
(declare-fun x0 () Real)
(declare-fun y0 () Real)
(declare-fun x1 () Real)
(declare-fun y1 () Real)
(declare-fun x2 () Real)
(declare-fun y2 () Real)
(declare-fun x3 () Real)
(declare-fun y3 () Real)
(declare-fun x4 () Real)
(declare-fun y4 () Real)
(declare-fun x5 () Real)
(declare-fun y5 () Real)
(declare-fun x6 () Real)
(declare-fun y6 () Real)
(declare-fun x7 () Real)
(declare-fun y7 () Real)
(declare-fun x8 () Real)
(declare-fun y8 () Real)
(declare-fun x9 () Real)
(declare-fun y9 () Real)
(declare-fun x10 () Real)
(declare-fun y10 () Real)
(declare-fun x11 () Real)
(declare-fun y11 () Real)
(declare-fun z () Real)
(declare-fun c () Real)
(assert (and (= c z) (and (>= x0 0) 
(and (>= y0 0) 
(and (>= x1 0) 
(and (>= y1 0) 
(and (>= x2 0) 
(and (>= y2 0) 
(and (>= x3 0) 
(and (>= y3 0) 
(and (>= x4 0) 
(and (>= y4 0) 
(and (>= x5 0) 
(and (>= y5 0) 
(and (>= x6 0) 
(and (>= y6 0) 
(and (>= x7 0) 
(and (>= y7 0) 
(and (>= x8 0) 
(and (>= y8 0) 
(and (>= x9 0) 
(and (>= y9 0) 
(and (>= x10 0) 
(and (>= y10 0) 
(and (>= x11 0) 
(and (>= y11 0) 
(and (>= z 0) 
(and (>= c 0) 
(and (<= (+ x0 0.4647952178) z) 
(and (<= 0.9323689684 y0) 
(and (<= y0 1.0) 
(and (<= x0 (- 5.0334729774 0.4647952178)) 
(and (>= x0 0) 
(and (<= (+ x1 0.7573244644) z) 
(and (<= 0.9273548871 y1) 
(and (<= y1 1.0) 
(and (<= x1 (- 5.0334729774 0.7573244644)) 
(and (>= x1 0) 
(and (<= (+ x2 0.7899913045) z) 
(and (<= 0.742723025 y2) 
(and (<= y2 1.0) 
(and (<= x2 (- 5.0334729774 0.7899913045)) 
(and (>= x2 0) 
(and (<= (+ x3 0.4609184354) z) 
(and (<= 0.7108035564 y3) 
(and (<= y3 1.0) 
(and (<= x3 (- 5.0334729774 0.4609184354)) 
(and (>= x3 0) 
(and (<= (+ x4 0.0111887896) z) 
(and (<= 0.5384669899 y4) 
(and (<= y4 1.0) 
(and (<= x4 (- 5.0334729774 0.0111887896)) 
(and (>= x4 0) 
(and (<= (+ x5 0.6028017374) z) 
(and (<= 0.3584218462 y5) 
(and (<= y5 1.0) 
(and (<= x5 (- 5.0334729774 0.6028017374)) 
(and (>= x5 0) 
(and (<= (+ x6 0.9699630914) z) 
(and (<= 0.3463642461 y6) 
(and (<= y6 1.0) 
(and (<= x6 (- 5.0334729774 0.9699630914)) 
(and (>= x6 0) 
(and (<= (+ x7 0.0278308926) z) 
(and (<= 0.3455761794 y7) 
(and (<= y7 1.0) 
(and (<= x7 (- 5.0334729774 0.0278308926)) 
(and (>= x7 0) 
(and (<= (+ x8 0.9764899369) z) 
(and (<= 0.1947057131 y8) 
(and (<= y8 1.0) 
(and (<= x8 (- 5.0334729774 0.9764899369)) 
(and (>= x8 0) 
(and (<= (+ x9 0.8400989778) z) 
(and (<= 0.1580972685 y9) 
(and (<= y9 1.0) 
(and (<= x9 (- 5.0334729774 0.8400989778)) 
(and (>= x9 0) 
(and (<= (+ x10 0.4004452711) z) 
(and (<= 0.0825373351 y10) 
(and (<= y10 1.0) 
(and (<= x10 (- 5.0334729774 0.4004452711)) 
(and (>= x10 0) 
(and (<= (+ x11 0.0065149924) z) 
(and (<= 0.0074280058 y11) 
(and (<= y11 1.0) 
(and (<= x11 (- 5.0334729774 0.0065149924)) 
(and (>= x11 0) 
(and (<= c 5.0334729774) 
(and (or (<= (+ x0 0.4647952178) x1) (or (<= (+ x1 0.7573244644) x0) (or (>= (- y0 0.9323689684) y1) (or (>= (- y1 0.9273548871) y0))))) 
(and (or (<= (+ x0 0.4647952178) x2) (or (<= (+ x2 0.7899913045) x0) (or (>= (- y0 0.9323689684) y2) (or (>= (- y2 0.742723025) y0))))) 
(and (or (<= (+ x0 0.4647952178) x3) (or (<= (+ x3 0.4609184354) x0) (or (>= (- y0 0.9323689684) y3) (or (>= (- y3 0.7108035564) y0))))) 
(and (or (<= (+ x0 0.4647952178) x4) (or (<= (+ x4 0.0111887896) x0) (or (>= (- y0 0.9323689684) y4) (or (>= (- y4 0.5384669899) y0))))) 
(and (or (<= (+ x0 0.4647952178) x5) (or (<= (+ x5 0.6028017374) x0) (or (>= (- y0 0.9323689684) y5) (or (>= (- y5 0.3584218462) y0))))) 
(and (or (<= (+ x0 0.4647952178) x6) (or (<= (+ x6 0.9699630914) x0) (or (>= (- y0 0.9323689684) y6) (or (>= (- y6 0.3463642461) y0))))) 
(and (or (<= (+ x0 0.4647952178) x7) (or (<= (+ x7 0.0278308926) x0) (or (>= (- y0 0.9323689684) y7) (or (>= (- y7 0.3455761794) y0))))) 
(and (or (<= (+ x0 0.4647952178) x8) (or (<= (+ x8 0.9764899369) x0) (or (>= (- y0 0.9323689684) y8) (or (>= (- y8 0.1947057131) y0))))) 
(and (or (<= (+ x0 0.4647952178) x9) (or (<= (+ x9 0.8400989778) x0) (or (>= (- y0 0.9323689684) y9) (or (>= (- y9 0.1580972685) y0))))) 
(and (or (<= (+ x0 0.4647952178) x10) (or (<= (+ x10 0.4004452711) x0) (or (>= (- y0 0.9323689684) y10) (or (>= (- y10 0.0825373351) y0))))) 
(and (or (<= (+ x0 0.4647952178) x11) (or (<= (+ x11 0.0065149924) x0) (or (>= (- y0 0.9323689684) y11) (or (>= (- y11 0.0074280058) y0))))) 
(and (or (<= (+ x1 0.7573244644) x2) (or (<= (+ x2 0.7899913045) x1) (or (>= (- y1 0.9273548871) y2) (or (>= (- y2 0.742723025) y1))))) 
(and (or (<= (+ x1 0.7573244644) x3) (or (<= (+ x3 0.4609184354) x1) (or (>= (- y1 0.9273548871) y3) (or (>= (- y3 0.7108035564) y1))))) 
(and (or (<= (+ x1 0.7573244644) x4) (or (<= (+ x4 0.0111887896) x1) (or (>= (- y1 0.9273548871) y4) (or (>= (- y4 0.5384669899) y1))))) 
(and (or (<= (+ x1 0.7573244644) x5) (or (<= (+ x5 0.6028017374) x1) (or (>= (- y1 0.9273548871) y5) (or (>= (- y5 0.3584218462) y1))))) 
(and (or (<= (+ x1 0.7573244644) x6) (or (<= (+ x6 0.9699630914) x1) (or (>= (- y1 0.9273548871) y6) (or (>= (- y6 0.3463642461) y1))))) 
(and (or (<= (+ x1 0.7573244644) x7) (or (<= (+ x7 0.0278308926) x1) (or (>= (- y1 0.9273548871) y7) (or (>= (- y7 0.3455761794) y1))))) 
(and (or (<= (+ x1 0.7573244644) x8) (or (<= (+ x8 0.9764899369) x1) (or (>= (- y1 0.9273548871) y8) (or (>= (- y8 0.1947057131) y1))))) 
(and (or (<= (+ x1 0.7573244644) x9) (or (<= (+ x9 0.8400989778) x1) (or (>= (- y1 0.9273548871) y9) (or (>= (- y9 0.1580972685) y1))))) 
(and (or (<= (+ x1 0.7573244644) x10) (or (<= (+ x10 0.4004452711) x1) (or (>= (- y1 0.9273548871) y10) (or (>= (- y10 0.0825373351) y1))))) 
(and (or (<= (+ x1 0.7573244644) x11) (or (<= (+ x11 0.0065149924) x1) (or (>= (- y1 0.9273548871) y11) (or (>= (- y11 0.0074280058) y1))))) 
(and (or (<= (+ x2 0.7899913045) x3) (or (<= (+ x3 0.4609184354) x2) (or (>= (- y2 0.742723025) y3) (or (>= (- y3 0.7108035564) y2))))) 
(and (or (<= (+ x2 0.7899913045) x4) (or (<= (+ x4 0.0111887896) x2) (or (>= (- y2 0.742723025) y4) (or (>= (- y4 0.5384669899) y2))))) 
(and (or (<= (+ x2 0.7899913045) x5) (or (<= (+ x5 0.6028017374) x2) (or (>= (- y2 0.742723025) y5) (or (>= (- y5 0.3584218462) y2))))) 
(and (or (<= (+ x2 0.7899913045) x6) (or (<= (+ x6 0.9699630914) x2) (or (>= (- y2 0.742723025) y6) (or (>= (- y6 0.3463642461) y2))))) 
(and (or (<= (+ x2 0.7899913045) x7) (or (<= (+ x7 0.0278308926) x2) (or (>= (- y2 0.742723025) y7) (or (>= (- y7 0.3455761794) y2))))) 
(and (or (<= (+ x2 0.7899913045) x8) (or (<= (+ x8 0.9764899369) x2) (or (>= (- y2 0.742723025) y8) (or (>= (- y8 0.1947057131) y2))))) 
(and (or (<= (+ x2 0.7899913045) x9) (or (<= (+ x9 0.8400989778) x2) (or (>= (- y2 0.742723025) y9) (or (>= (- y9 0.1580972685) y2))))) 
(and (or (<= (+ x2 0.7899913045) x10) (or (<= (+ x10 0.4004452711) x2) (or (>= (- y2 0.742723025) y10) (or (>= (- y10 0.0825373351) y2))))) 
(and (or (<= (+ x2 0.7899913045) x11) (or (<= (+ x11 0.0065149924) x2) (or (>= (- y2 0.742723025) y11) (or (>= (- y11 0.0074280058) y2))))) 
(and (or (<= (+ x3 0.4609184354) x4) (or (<= (+ x4 0.0111887896) x3) (or (>= (- y3 0.7108035564) y4) (or (>= (- y4 0.5384669899) y3))))) 
(and (or (<= (+ x3 0.4609184354) x5) (or (<= (+ x5 0.6028017374) x3) (or (>= (- y3 0.7108035564) y5) (or (>= (- y5 0.3584218462) y3))))) 
(and (or (<= (+ x3 0.4609184354) x6) (or (<= (+ x6 0.9699630914) x3) (or (>= (- y3 0.7108035564) y6) (or (>= (- y6 0.3463642461) y3))))) 
(and (or (<= (+ x3 0.4609184354) x7) (or (<= (+ x7 0.0278308926) x3) (or (>= (- y3 0.7108035564) y7) (or (>= (- y7 0.3455761794) y3))))) 
(and (or (<= (+ x3 0.4609184354) x8) (or (<= (+ x8 0.9764899369) x3) (or (>= (- y3 0.7108035564) y8) (or (>= (- y8 0.1947057131) y3))))) 
(and (or (<= (+ x3 0.4609184354) x9) (or (<= (+ x9 0.8400989778) x3) (or (>= (- y3 0.7108035564) y9) (or (>= (- y9 0.1580972685) y3))))) 
(and (or (<= (+ x3 0.4609184354) x10) (or (<= (+ x10 0.4004452711) x3) (or (>= (- y3 0.7108035564) y10) (or (>= (- y10 0.0825373351) y3))))) 
(and (or (<= (+ x3 0.4609184354) x11) (or (<= (+ x11 0.0065149924) x3) (or (>= (- y3 0.7108035564) y11) (or (>= (- y11 0.0074280058) y3))))) 
(and (or (<= (+ x4 0.0111887896) x5) (or (<= (+ x5 0.6028017374) x4) (or (>= (- y4 0.5384669899) y5) (or (>= (- y5 0.3584218462) y4))))) 
(and (or (<= (+ x4 0.0111887896) x6) (or (<= (+ x6 0.9699630914) x4) (or (>= (- y4 0.5384669899) y6) (or (>= (- y6 0.3463642461) y4))))) 
(and (or (<= (+ x4 0.0111887896) x7) (or (<= (+ x7 0.0278308926) x4) (or (>= (- y4 0.5384669899) y7) (or (>= (- y7 0.3455761794) y4))))) 
(and (or (<= (+ x4 0.0111887896) x8) (or (<= (+ x8 0.9764899369) x4) (or (>= (- y4 0.5384669899) y8) (or (>= (- y8 0.1947057131) y4))))) 
(and (or (<= (+ x4 0.0111887896) x9) (or (<= (+ x9 0.8400989778) x4) (or (>= (- y4 0.5384669899) y9) (or (>= (- y9 0.1580972685) y4))))) 
(and (or (<= (+ x4 0.0111887896) x10) (or (<= (+ x10 0.4004452711) x4) (or (>= (- y4 0.5384669899) y10) (or (>= (- y10 0.0825373351) y4))))) 
(and (or (<= (+ x4 0.0111887896) x11) (or (<= (+ x11 0.0065149924) x4) (or (>= (- y4 0.5384669899) y11) (or (>= (- y11 0.0074280058) y4))))) 
(and (or (<= (+ x5 0.6028017374) x6) (or (<= (+ x6 0.9699630914) x5) (or (>= (- y5 0.3584218462) y6) (or (>= (- y6 0.3463642461) y5))))) 
(and (or (<= (+ x5 0.6028017374) x7) (or (<= (+ x7 0.0278308926) x5) (or (>= (- y5 0.3584218462) y7) (or (>= (- y7 0.3455761794) y5))))) 
(and (or (<= (+ x5 0.6028017374) x8) (or (<= (+ x8 0.9764899369) x5) (or (>= (- y5 0.3584218462) y8) (or (>= (- y8 0.1947057131) y5))))) 
(and (or (<= (+ x5 0.6028017374) x9) (or (<= (+ x9 0.8400989778) x5) (or (>= (- y5 0.3584218462) y9) (or (>= (- y9 0.1580972685) y5))))) 
(and (or (<= (+ x5 0.6028017374) x10) (or (<= (+ x10 0.4004452711) x5) (or (>= (- y5 0.3584218462) y10) (or (>= (- y10 0.0825373351) y5))))) 
(and (or (<= (+ x5 0.6028017374) x11) (or (<= (+ x11 0.0065149924) x5) (or (>= (- y5 0.3584218462) y11) (or (>= (- y11 0.0074280058) y5))))) 
(and (or (<= (+ x6 0.9699630914) x7) (or (<= (+ x7 0.0278308926) x6) (or (>= (- y6 0.3463642461) y7) (or (>= (- y7 0.3455761794) y6))))) 
(and (or (<= (+ x6 0.9699630914) x8) (or (<= (+ x8 0.9764899369) x6) (or (>= (- y6 0.3463642461) y8) (or (>= (- y8 0.1947057131) y6))))) 
(and (or (<= (+ x6 0.9699630914) x9) (or (<= (+ x9 0.8400989778) x6) (or (>= (- y6 0.3463642461) y9) (or (>= (- y9 0.1580972685) y6))))) 
(and (or (<= (+ x6 0.9699630914) x10) (or (<= (+ x10 0.4004452711) x6) (or (>= (- y6 0.3463642461) y10) (or (>= (- y10 0.0825373351) y6))))) 
(and (or (<= (+ x6 0.9699630914) x11) (or (<= (+ x11 0.0065149924) x6) (or (>= (- y6 0.3463642461) y11) (or (>= (- y11 0.0074280058) y6))))) 
(and (or (<= (+ x7 0.0278308926) x8) (or (<= (+ x8 0.9764899369) x7) (or (>= (- y7 0.3455761794) y8) (or (>= (- y8 0.1947057131) y7))))) 
(and (or (<= (+ x7 0.0278308926) x9) (or (<= (+ x9 0.8400989778) x7) (or (>= (- y7 0.3455761794) y9) (or (>= (- y9 0.1580972685) y7))))) 
(and (or (<= (+ x7 0.0278308926) x10) (or (<= (+ x10 0.4004452711) x7) (or (>= (- y7 0.3455761794) y10) (or (>= (- y10 0.0825373351) y7))))) 
(and (or (<= (+ x7 0.0278308926) x11) (or (<= (+ x11 0.0065149924) x7) (or (>= (- y7 0.3455761794) y11) (or (>= (- y11 0.0074280058) y7))))) 
(and (or (<= (+ x8 0.9764899369) x9) (or (<= (+ x9 0.8400989778) x8) (or (>= (- y8 0.1947057131) y9) (or (>= (- y9 0.1580972685) y8))))) 
(and (or (<= (+ x8 0.9764899369) x10) (or (<= (+ x10 0.4004452711) x8) (or (>= (- y8 0.1947057131) y10) (or (>= (- y10 0.0825373351) y8))))) 
(and (or (<= (+ x8 0.9764899369) x11) (or (<= (+ x11 0.0065149924) x8) (or (>= (- y8 0.1947057131) y11) (or (>= (- y11 0.0074280058) y8))))) 
(and (or (<= (+ x9 0.8400989778) x10) (or (<= (+ x10 0.4004452711) x9) (or (>= (- y9 0.1580972685) y10) (or (>= (- y10 0.0825373351) y9))))) 
(and (or (<= (+ x9 0.8400989778) x11) (or (<= (+ x11 0.0065149924) x9) (or (>= (- y9 0.1580972685) y11) (or (>= (- y11 0.0074280058) y9))))) 
(and (or (<= (+ x10 0.4004452711) x11) (or (<= (+ x11 0.0065149924) x10) (or (>= (- y10 0.0825373351) y11) (or (>= (- y11 0.0074280058) y10))))) )))))))))))))))))))))))))))))))))))))))))))))))))))))))))))))))))))))))))))))))))))))))))))))))))))))))))))))))))))))))))))))))))))))))))))))))))))))))))))
(minimize c)
(check-sat)
(get-objectives)
(exit)
